% [ 0-1", "1-3", "2-3", "2-0", "3-1", "3-2", "0-L", "L-0", "1-L", "L-2", "3-L", "L-3]
hp = 55;
num_links = 12;
num_packets = 5;

% f1:0 f2:0 f3:0 f4:0 f5:0 
occupancy = 
[|  1037,    2067,      -1,      -1,      -1,   %0-1
 |    -1,    2067,      -1,      -1,      -1,   %1-3
 |    -1,      -1,   16397,   16403,      -1,   %2-3
 |    -1,      -1,      -1,      -1,     531,   %2-0
 |    -1,      -1,      -1,   16403,      -1,   %3-1
 |    -1,      -1,      -1,      -1,     531,   %3-2
 |    -1,      -1,      -1,      -1,     531,   %0-L
 |  1037,    2067,      -1,      -1,      -1,   %L-0
 |  1037,      -1,      -1,   16403,      -1,   %1-L
 |    -1,      -1,   16397,   16403,      -1,   %L-2
 |    -1,    2067,   16397,      -1,      -1,   %3-L
 |    -1,      -1,      -1,      -1,     531,   %L-3
|];

% f1:0 f2:0 f3:0 f4:0 f5:0 
deadline = 
[|    55,      55,      -1,      -1,      -1,   %0-1
 |    -1,      55,      -1,      -1,      -1,   %1-3
 |    -1,      -1,      55,      55,      -1,   %2-3
 |    -1,      -1,      -1,      -1,      55,   %2-0
 |    -1,      -1,      -1,      55,      -1,   %3-1
 |    -1,      -1,      -1,      -1,      55,   %3-2
 |    -1,      -1,      -1,      -1,      55,   %0-L
 |    55,      55,      -1,      -1,      -1,   %L-0
 |    55,      -1,      -1,      55,      -1,   %1-L
 |    -1,      -1,      55,      55,      -1,   %L-2
 |    -1,      55,      55,      -1,      -1,   %3-L
 |    -1,      -1,      -1,      -1,      55,   %L-3
|];

% f1:0 f2:0 f3:0 f4:0 f5:0 
min_start = 
[|     0,       0,      -1,      -1,      -1,   %0-1
 |    -1,       0,      -1,      -1,      -1,   %1-3
 |    -1,      -1,       0,       0,      -1,   %2-3
 |    -1,      -1,      -1,      -1,       0,   %2-0
 |    -1,      -1,      -1,       0,      -1,   %3-1
 |    -1,      -1,      -1,      -1,       0,   %3-2
 |    -1,      -1,      -1,      -1,       0,   %0-L
 |     0,       0,      -1,      -1,      -1,   %L-0
 |     0,      -1,      -1,       0,      -1,   %1-L
 |    -1,      -1,       0,       0,      -1,   %L-2
 |    -1,       0,       0,      -1,      -1,   %3-L
 |    -1,      -1,      -1,      -1,       0,   %L-3
|];
